outputs/case_139.model.txt
broker_reinsurance_confirmation_obtained_before_effective = False
reinsurance_written_delegation_obtained = True
legal_reinsurance_entity = False
broker_reinsurance_conditions_consistent = False
reinsurance_confirmation_before_effective_ok = False
required_credit_rating = 0
domestic_reinsurance_approved = True
temporary_non_proportional_reinsurance_non_compliant = False
foreign_reinsurance_approved = False
non_eligible_reinsurance_target = False
reinsurance_confirmation_obtained_before_effective = False
foreign_reinsurance_credit_rating = -1
domestic_participation_ratio = 30
other_approved_reinsurance_entity = False
violated_165_1_or_163_5 = False
violated_management_rules = False
violated_163_7 = False
reinsurance_documents_saved = False
reinsurance_documents_retained = False
notify_major_info_after_effective = False
notify_original_insurer_after_effective = False
foreign_broker_approved_by_home_authority = False
foreign_broker_professional_liability_insurance_valid = False
foreign_broker_per_accident_limit_usd = 0
foreign_broker_aggregate_limit_usd = 0
foreign_broker_deductible_rate = 0
foreign_broker_insurance_period_uninterrupted = 0
foreign_broker_qualified = False
dual_agency_disclosed_in_contract = False
dual_agency_disclosed = False
temporary_non_proportional_reinsurance_compliant = True
violation_any = False
registered_professional_reinsurance = False
reinsurance_target_qualified = False
documents_saved_min_5_years = False
documents_retained_min_5_years = False
deliver_complete_contract_within_6_months = False
complete_contract_delivered_within_6_months = False
serious_violation = False
temporary_non_proportional_reinsurance_ok = True
violation_163_7 = False
deliver_signed_contract_within_60_days = False
signed_contract_delivered_within_60_days = False
broker_foreign_broker_qualified = False
broker_reinsurance_confirmation_ok = False
eligible_reinsurance_target = True
reinsurance_written_delegation_ok = True
internal_control_segregation_established = False
conflict_of_interest = False
internal_control_segregation_ok = False
penalty_imposed = False
complete_contract_delivered = False
signed_contract_delivered = False
risk_management_plan_arranged = False
exempted_by_risk_management_standards = False
risk_management_plan_compliant = False
domestic_participation_sufficient = True
follow_ethics_and_self_regulation = False
ethics_and_self_regulation_ok = False
reinsurance_info_delivered = False
reinsurance_info_delivered_before_effective = False
penalty = False
reinsurance_credit_rating = 0
reinsurance_consent_obtained = False
reinsurance_credit_and_consent_ok = False
violation_management_rules = False
violation_165_1_or_163_5 = False